(set-info :smt-lib-version 2.6)
(set-logic ABV)
(set-info :source |
Generated by the tool Ultimate Automizer [1,2] which implements
an automata theoretic approach [3] to software verification.

This SMT script belongs to a set of SMT scripts that was generated by
applying Ultimate Automizer to benchmarks [4] from the SV-COMP 2023 [5,6].
This script may not contain all SMT commands that Ultimate Automizer
issued. In order to meet the restrictions for SMT-COMP benchmarks 
we dropped the commands for getting values (resp. models), 
unsatisfiable cores, and interpolants.

2023-03-21, Matthias Heizmann (heizmann@informatik.uni-freiburg.de)

[1] https://ultimate.informatik.uni-freiburg.de/automizer/
[2] Matthias Heizmann, Max Barth, Daniel Dietsch, Leonard Fichtner,
     Jochen Hoenicke, Dominik Klumpp, Mehdi Naouar, Tanja Schindler,
     Frank Schüssele, Andreas Podelski: Ultimate Automizer and the
     CommuHash Normal Form (Competition Contribution). TACAS 2023
[3] Matthias Heizmann, Jochen Hoenicke, Andreas Podelski: Software Model
     Checking for People Who Love Automata. CAV 2013
[4] https://github.com/sosy-lab/sv-benchmarks
[5] Dirk Beyer: Competition on Software Verification and
     Witness Validation: SV-COMP 2023.  TACAS 2023
[6] https://sv-comp.sosy-lab.org/2023/
|)
(set-info :license "https://creativecommons.org/licenses/by/4.0/")
(set-info :category "industrial")
(set-info :status unknown)
(declare-fun ~unnamed0~0~P_ALL () (_ BitVec 32))
(declare-fun ~unnamed0~0~P_PID () (_ BitVec 32))
(declare-fun ~unnamed0~0~P_PGID () (_ BitVec 32))
(declare-fun |c_#valid| () (Array (_ BitVec 64) (_ BitVec 1)))
(declare-fun |c_#memory_$Pointer$.base| () (Array (_ BitVec 64) (Array (_ BitVec 64) (_ BitVec 64))))
(declare-fun |c_#memory_$Pointer$.offset| () (Array (_ BitVec 64) (Array (_ BitVec 64) (_ BitVec 64))))
(declare-fun |c_#memory_int| () (Array (_ BitVec 64) (Array (_ BitVec 64) (_ BitVec 32))))
(declare-fun |c_#StackHeapBarrier| () (_ BitVec 64))
(declare-fun |c_ULTIMATE.start_main_~data~0#1| () (_ BitVec 32))
(declare-fun |c_ULTIMATE.start_main_~#s~0#1.base| () (_ BitVec 64))
(declare-fun |c_ULTIMATE.start_main_~#s~0#1.offset| () (_ BitVec 64))
(declare-fun |c_ULTIMATE.start_main_~ptr~0#1.base| () (_ BitVec 64))
(declare-fun |c_ULTIMATE.start_main_~ptr~0#1.offset| () (_ BitVec 64))
(declare-fun |c_ULTIMATE.start_sll_insert_~head#1.base| () (_ BitVec 64))
(declare-fun |c_ULTIMATE.start_sll_insert_~head#1.offset| () (_ BitVec 64))
(assert (= ~unnamed0~0~P_ALL (_ bv0 32)))
(assert (= ~unnamed0~0~P_PID (_ bv1 32)))
(assert (= (_ bv2 32) ~unnamed0~0~P_PGID))
(assert (forall ((v_ArrVal_325 (Array (_ BitVec 64) (_ BitVec 64))) (v_ArrVal_322 (_ BitVec 32)) (|v_ULTIMATE.start_sll_insert_#t~ret7#1.base_14| (_ BitVec 64)) (v_ArrVal_335 (Array (_ BitVec 64) (_ BitVec 64))) (v_ArrVal_336 (Array (_ BitVec 64) (_ BitVec 32))) (v_ArrVal_324 (Array (_ BitVec 64) (_ BitVec 64))) (v_ArrVal_334 (Array (_ BitVec 64) (_ BitVec 64))) (v_ArrVal_326 (Array (_ BitVec 64) (_ BitVec 32))) (v_ArrVal_323 (Array (_ BitVec 64) (_ BitVec 64))) (v_ArrVal_321 (Array (_ BitVec 64) (_ BitVec 64)))) (or (= |c_ULTIMATE.start_main_~data~0#1| (let ((.cse3 (store |c_#memory_$Pointer$.base| |v_ULTIMATE.start_sll_insert_#t~ret7#1.base_14| v_ArrVal_335))) (let ((.cse2 (store |c_#memory_$Pointer$.offset| |v_ULTIMATE.start_sll_insert_#t~ret7#1.base_14| v_ArrVal_334)) (.cse1 (select (select .cse3 |c_ULTIMATE.start_sll_insert_~head#1.base|) |c_ULTIMATE.start_sll_insert_~head#1.offset|))) (select (select (store (let ((.cse0 (store |c_#memory_int| |v_ULTIMATE.start_sll_insert_#t~ret7#1.base_14| v_ArrVal_336))) (store .cse0 .cse1 (store (select .cse0 .cse1) (bvadd (_ bv4 64) (select (select .cse2 |c_ULTIMATE.start_sll_insert_~head#1.base|) |c_ULTIMATE.start_sll_insert_~head#1.offset|)) v_ArrVal_322))) |v_ULTIMATE.start_sll_insert_#t~ret7#1.base_14| v_ArrVal_326) (select (select (store (store .cse3 .cse1 v_ArrVal_323) |v_ULTIMATE.start_sll_insert_#t~ret7#1.base_14| v_ArrVal_324) |c_ULTIMATE.start_main_~#s~0#1.base|) |c_ULTIMATE.start_main_~#s~0#1.offset|)) (select (select (store (store .cse2 .cse1 v_ArrVal_321) |v_ULTIMATE.start_sll_insert_#t~ret7#1.base_14| v_ArrVal_325) |c_ULTIMATE.start_main_~#s~0#1.base|) |c_ULTIMATE.start_main_~#s~0#1.offset|))))) (not (bvult |v_ULTIMATE.start_sll_insert_#t~ret7#1.base_14| |c_#StackHeapBarrier|)) (not (= (select |c_#valid| |v_ULTIMATE.start_sll_insert_#t~ret7#1.base_14|) (_ bv0 1))))))
(assert (not (and (= |c_ULTIMATE.start_main_~data~0#1| (_ bv1 32)) (= (_ bv1 32) (select (select |c_#memory_int| |c_ULTIMATE.start_main_~ptr~0#1.base|) (_ bv0 64))) (exists ((|ULTIMATE.start_sll_insert_~new_node~0#1.base| (_ BitVec 64)) (|#StackHeapBarrier| (_ BitVec 64))) (and (bvult |c_ULTIMATE.start_main_~ptr~0#1.base| |#StackHeapBarrier|) (bvult |ULTIMATE.start_sll_insert_~new_node~0#1.base| |#StackHeapBarrier|) (not (= (_ bv0 64) (bvadd |#StackHeapBarrier| (_ bv1 64)))) (not (= |c_ULTIMATE.start_main_~ptr~0#1.base| |ULTIMATE.start_sll_insert_~new_node~0#1.base|)))) (= (_ bv0 64) |c_ULTIMATE.start_main_~ptr~0#1.offset|))))
(check-sat)
(exit)
